N = 5;
H = 6;
T = 2;

avail = array3d(1..N, 1..H, 1..T, [5, 8, 8, 7, 5, 1, 7, 4, 1, 0, 9, 4, 3, 7, 7, 2, 10, 3, 9, 9, 9, 6, 8, 8, 6, 8, 4, 5, 7, 7, 6, 0, 9, 9, 5, 5, 3, 3, 9, 4, 5, 2, 10, 3, 5, 1, 5, 1, 0, 4, 2, 8, 4, 10, 3, 9, 10, 6, 0, 6]);

r = array2d(1..H, 1..T, [0, 1, 1, 1, 2, 0, 3, 2, 2, 1, 1, 2]);
